(set-logic HORN)
(declare-fun state (Int Int Int Bool Int (Array Int Int) Bool Int (Array Int Int) Bool Int (Array Int Int) Int) Bool)
(assert (forall ((|.x.14| Int) (|main@%.0.i_0_0| Int) (|main@%_2_0_0| Int) (|main@%assume.flag.0_0_0| Bool) (|main@%_5_0_0| Int) (|main@%shadow.mem.2_0_0| (Array Int Int)) (|main@%_4_0_0| Bool) (|main@%.1.i1_0_0| Int) (|main@%shadow.mem.1_0_0| (Array Int Int)) (|main@%_3_0_0| Bool) (|main@%.01.i2_0_0| Int) (|main@%shadow.mem.0_0_0| (Array Int Int)) (|@nd_0_0| Int) (|.x.21| Int) (|main@%_5_1| Int) (|main@%_2_1| Int) (|main@%_3_1| Bool) (|main@%_4_1| Bool) (|main@%.01.i2_2| Int) (|.x.15| Int) (|.x.16| Int) (|.x.17| Bool) (|.x.18| (Array Int Int)) (|main@%shadow.mem.0_2| (Array Int Int)) (|.x.20| (Array Int Int)) (|.x.19| Int)) (=> (= .x.14 0) (state |.x.14| |main@%.0.i_0_0| |main@%_2_0_0| |main@%assume.flag.0_0_0| |main@%_5_0_0| |main@%shadow.mem.2_0_0| |main@%_4_0_0| |main@%.1.i1_0_0| |main@%shadow.mem.1_0_0| |main@%_3_0_0| |main@%.01.i2_0_0| |main@%shadow.mem.0_0_0| |@nd_0_0|))))
(assert (forall ((|.x.14| Int) (|main@%.0.i_0_0| Int) (|main@%_2_0_0| Int) (|main@%assume.flag.0_0_0| Bool) (|main@%_5_0_0| Int) (|main@%shadow.mem.2_0_0| (Array Int Int)) (|main@%_4_0_0| Bool) (|main@%.1.i1_0_0| Int) (|main@%shadow.mem.1_0_0| (Array Int Int)) (|main@%_3_0_0| Bool) (|main@%.01.i2_0_0| Int) (|main@%shadow.mem.0_0_0| (Array Int Int)) (|@nd_0_0| Int) (|.x.21| Int) (|main@%_5_1| Int) (|main@%_2_1| Int) (|main@%_3_1| Bool) (|main@%_4_1| Bool) (|main@%.01.i2_2| Int) (|.x.15| Int) (|.x.16| Int) (|.x.17| Bool) (|.x.18| (Array Int Int)) (|main@%shadow.mem.0_2| (Array Int Int)) (|.x.20| (Array Int Int)) (|.x.19| Int)) (=> (and (state |.x.14| |main@%.0.i_0_0| |main@%_2_0_0| |main@%assume.flag.0_0_0| |main@%_5_0_0| |main@%shadow.mem.2_0_0| |main@%_4_0_0| |main@%.1.i1_0_0| |main@%shadow.mem.1_0_0| |main@%_3_0_0| |main@%.01.i2_0_0| |main@%shadow.mem.0_0_0| |@nd_0_0|) (let ((.def_44 (= .x.15 1))) (let ((.def_47 (= main@%.0.i_0_0 .x.16))) (let ((.def_50 (= main@%assume.flag.0_0_0 .x.17))) (let ((.def_53 (= main@%shadow.mem.2_0_0 .x.18))) (let ((.def_57 (= .x.16 0))) (let ((.def_62 (= .x.15 3))) (let ((.def_64 (= main@%.01.i2_0_0 main@%.01.i2_2))) (let ((.def_67 (= main@%shadow.mem.0_0_0 main@%shadow.mem.0_2))) (let ((.def_74 (<= (+ main@%_2_0_0 (* (- 1) main@%.01.i2_0_0)) 1))) (let ((.def_81 (store main@%shadow.mem.0_0_0 (+ main@%_5_0_0 main@%.01.i2_0_0) 42))) (let ((.def_89 (<= main@%_5_0_0 0))) (let ((.def_90 (not .def_89))) (let ((.def_94 (or .def_89 (not (<= (+ main@%_5_0_0 main@%.01.i2_0_0) 0))))) (let ((.def_96 (= .x.14 1))) (let ((.def_98 (= main@%_2_0_0 main@%_2_1))) (let ((.def_100 (= main@%_5_0_0 main@%_5_1))) (let ((.def_102 (= main@%_4_0_0 main@%_4_1))) (let ((.def_104 (= main@%_3_0_0 main@%_3_1))) (let ((.def_108 (= main@%shadow.mem.1_0_0 .x.20))) (let ((.def_110 (= main@%.1.i1_0_0 .x.19))) (let ((.def_111 (and .def_108 .def_110))) (let ((.def_131 (= .x.15 2))) (let ((.def_139 (and .def_67 (and .def_64 (and .def_62 (and .def_57 .def_111)))))) (let ((.def_148 (= main@%_4_0_0 .x.17))) (let ((.def_155 (<= (+ main@%_2_0_0 (* (- 1) main@%.1.i1_0_0)) 1))) (let ((.def_162 (store main@%shadow.mem.1_0_0 (+ main@%_5_0_0 main@%.1.i1_0_0) 43))) (let ((.def_179 (or .def_89 (not (<= (+ main@%_5_0_0 main@%.1.i1_0_0) 0))))) (let ((.def_181 (= .x.14 2))) (let ((.def_200 (not (<= main@%_2_0_0 main@%.0.i_0_0)))) (let ((.def_217 (= (select main@%shadow.mem.2_0_0 (+ main@%.0.i_0_0 main@%_5_0_0)) 43))) (let ((.def_221 (or .def_89 (not (<= (+ main@%.0.i_0_0 main@%_5_0_0) 0))))) (let ((.def_223 (= .x.14 3))) (and (= @nd_0_0 .x.21) (or (or (or (or (or (or (and (or (and (and (= .x.14 0) (and (not (<= main@%_5_1 0)) (and (= (not (<= main@%_2_1 0)) main@%_3_1) (= main@%_3_1 main@%_4_1)))) (or (and (= main@%.01.i2_2 0) (and (and (and (and main@%_3_1 .def_44) .def_47) .def_50) .def_53)) (and (and (and (and (and (= main@%_4_1 .x.17) .def_57) (not main@%_3_1)) .def_62) .def_64) .def_67))) (and (and (and (and (and (and (and (and (not .def_74) (and (= (+ main@%.01.i2_0_0 (* (- 1) main@%.01.i2_2)) (- 1)) (and (= main@%shadow.mem.0_2 .def_81) (and .def_53 (and .def_50 (and .def_44 .def_47)))))) .def_90) .def_94) .def_96) .def_98) .def_100) .def_102) .def_104)) .def_111) (and (and (= .x.19 0) (and (= .def_81 .x.20) (and .def_104 (and .def_102 (and .def_100 (and .def_98 (and .def_96 (and .def_94 (and .def_90 (and .def_74 (and .def_67 (and .def_64 (and .def_53 (and .def_50 (and main@%_3_0_0 .def_47))))))))))))))) .def_131)) (and (not main@%_3_0_0) (and (= .x.18 .def_81) (and (and .def_104 (and .def_102 (and .def_100 (and .def_98 (and .def_96 (and .def_94 (and .def_90 (and .def_74 .def_139)))))))) .def_148)))) (and (and (and (not .def_155) (and (= (+ main@%.1.i1_0_0 (* (- 1) .x.19)) (- 1)) (and (= .x.20 .def_162) (and .def_131 (and .def_104 (and .def_102 (and .def_100 (and .def_98 (and .def_90 (and .def_67 (and .def_64 (and .def_53 (and .def_47 .def_50))))))))))))) .def_179) .def_181)) (and (= .x.18 .def_162) (and .def_181 (and .def_179 (and .def_155 (and .def_148 (and .def_104 (and .def_102 (and .def_100 (and .def_98 (and .def_90 .def_139))))))))))) (and (and (and (and (= (+ main@%.0.i_0_0 (* (- 1) .x.16)) (- 1)) (and (= .x.17 (and main@%assume.flag.0_0_0 .def_200)) (and .def_104 (and .def_102 (and .def_100 (and .def_98 (and .def_90 (and .def_67 (and .def_64 (and .def_62 (and .def_108 (and .def_53 .def_110)))))))))))) .def_217) .def_221) .def_223)) (and (= .x.15 4) (and (not .def_217) (and .def_223 (and .def_221 (and .def_200 (and .def_104 (and .def_102 (and .def_100 (and .def_98 (and .def_90 (and .def_67 (and .def_64 (and .def_108 (and .def_110 (and .def_53 (and .def_50 (and main@%assume.flag.0_0_0 .def_47)))))))))))))))))))))))))))))))))))))))))))))))))))) (state |.x.15| |.x.16| |main@%_2_1| |.x.17| |main@%_5_1| |.x.18| |main@%_4_1| |.x.19| |.x.20| |main@%_3_1| |main@%.01.i2_2| |main@%shadow.mem.0_2| |.x.21|))))
(assert (forall ((|.x.14| Int) (|main@%.0.i_0_0| Int) (|main@%_2_0_0| Int) (|main@%assume.flag.0_0_0| Bool) (|main@%_5_0_0| Int) (|main@%shadow.mem.2_0_0| (Array Int Int)) (|main@%_4_0_0| Bool) (|main@%.1.i1_0_0| Int) (|main@%shadow.mem.1_0_0| (Array Int Int)) (|main@%_3_0_0| Bool) (|main@%.01.i2_0_0| Int) (|main@%shadow.mem.0_0_0| (Array Int Int)) (|@nd_0_0| Int) (|.x.21| Int) (|main@%_5_1| Int) (|main@%_2_1| Int) (|main@%_3_1| Bool) (|main@%_4_1| Bool) (|main@%.01.i2_2| Int) (|.x.15| Int) (|.x.16| Int) (|.x.17| Bool) (|.x.18| (Array Int Int)) (|main@%shadow.mem.0_2| (Array Int Int)) (|.x.20| (Array Int Int)) (|.x.19| Int)) (=> (state |.x.14| |main@%.0.i_0_0| |main@%_2_0_0| |main@%assume.flag.0_0_0| |main@%_5_0_0| |main@%shadow.mem.2_0_0| |main@%_4_0_0| |main@%.1.i1_0_0| |main@%shadow.mem.1_0_0| |main@%_3_0_0| |main@%.01.i2_0_0| |main@%shadow.mem.0_0_0| |@nd_0_0|) (not (= .x.14 4)))))
(check-sat)
